NAME : n60w20.005.629.tour
COMMENT : Length = 629
COMMENT : Found by LKH [Keld Helsgaun] Tue May  2 05:46:14 2017
TYPE : TOUR
DIMENSION : 61
TOUR_SECTION
1
9
12
14
36
19
27
43
52
13
51
34
8
30
35
4
45
48
11
21
56
17
29
38
46
20
59
3
50
26
22
33
49
47
23
2
54
53
57
18
7
58
40
28
37
55
32
44
24
39
41
60
31
15
10
6
25
61
16
42
5
-1
EOF
